caseWidth=10;
caseHeight=10;
caseCapacity=100;
n=20;
price=[85 47 67 95 27 8 58 92 32 45 51 90 46 29 74 40 95 50 84 74];
weight=[8 10 17 6 14 6 10 12 2 11 2 14 13 17 18 18 8 12 8 7];
side=[4 1 4 3 1 1 1 3 1 4 1 4 3 2 2 2 3 1 4 1];
